33
71
118
149
191
238
276
318
353
398
431
473
515
554
591
632
674
719
745
795
836
868
913
961
991
1041
1070
1111
1144
1184
1222
1266
1313
1347
1406
1420
1452
1510
1554
1580
1632
1665
1717
1738
1783
1819
1851
1901
1949
